207,481
463,564
787,512
852,461
607,178
620,21
746,-8
756,-68
802,318
738,388
893,618
1071,406
1161,406
1194,240
994,507
745,605
436,887
602,909
927,745
803,646
704,554
536,511
512,529
427,660
677,377
716,454
708,321
533,258
441,406
471,406
444,369
521,325
639,364
685,377
868,311
681,106
477,6
436,-75
